\ Model Routes
\ LP format - for model browsing. Use MPS format to capture full model detail.
Maximize
  1533.228206194839 R{0,0} + 2591.679024458567 R{0,1}
   + 2591.679024458567 R{0,2} - 249.2301939667805 R{0,3}
   + 222.8649545650627 R{0,4} + 892.5014194710873 R{0,5}
   + 1674.295699738689 R{0,6} + 2449.248936603863 R{0,7}
   + 2824.276373060128 R{0,8} + 1982.086429254923 R{0,9}
   + 1793.830411320892 R{0,10} + 2313.667439787901 R{0,11}
   + 2214.465364279313 R{0,12} + 1765.955813707841 R{0,13}
   + 1841.674742475079 R{0,14} + 1927.899923909727 R{0,15}
   + 1014.779625485352 R{0,16} + 1261.359734684628 R{0,17}
   + 1674.295699738689 R{0,18} + 2360.110275688084 R{0,19}
   + 2203.663834952014 R{0,20} + 1203.41801430667 R{0,21}
   + 2197.181286870502 R{0,22} + 1663.578586697626 R{0,23}
   - 256.140831891889 R{1,0} + 216.3226429839851 R{1,1}
   + 843.8103196491563 R{1,2} + 263.1513026158279 R{1,3}
   + 956.0554553366619 R{1,4} + 970.9467981037305 R{1,5}
   + 669.0299392172737 R{1,6} + 748.3311292626968 R{1,7}
   + 210.0194066350977 R{1,8} + 515.911524066943 R{1,9}
   + 1283.942081065736 R{1,10} + 466.1512155265586 R{1,11}
   + 810.558358337028 R{1,12} - 278.4443928850388 R{2,0}
   - 59.13410337035452 R{2,1} + 602.7748664658451 R{2,2}
   + 1100.505917706273 R{2,3} + 661.1183809175574 R{2,4}
   + 675.0053638221349 R{2,5} + 359.6260015013082 R{2,6}
   + 916.1855209384714 R{2,7} + 739.9080506286663 R{2,8}
   + 581.901474299494 R{2,9} - 260.2482995389823 R{3,0}
   + 459.0257104485919 R{3,1} + 838.3862215394925 R{3,2}
   + 271.2428154771736 R{3,3} + 554.4974361126286 R{3,4}
   + 559.1044093239825 R{3,5} + 964.6166282475992 R{3,6}
   + 1032.449094175272 R{3,7} + 959.3451405544915 R{3,8}
   + 622.5024424647434 R{3,9} + 1011.940431831766 R{3,10}
   + 1076.926999872088 R{3,11} + 901.0574328964967 R{3,12}
   + 980.2089452101563 R{3,13} + 1492.775157836648 R{3,14}
   + 418.6727928744614 R{3,15} + 1020.615254675678 R{3,16}
   + 994.1403713434497 R{3,17} - 242.5208875955131 R{4,0}
   + 1066.379443184683 R{4,1} + 1576.196574514046 R{4,2}
   + 1609.318116940007 R{4,3} + 1956.124433507427 R{4,4}
   + 911.238450987616 R{4,5} + 692.7779537575777 R{4,6}
   + 333.0795795323381 R{4,7} + 1104.942532556267 R{4,8}
   + 935.5443021268538 R{4,9} + 1282.073296445382 R{4,10}
   + 1069.61181295839 R{4,11} + 1365.326677281656 R{4,12}
   + 1931.337246971942 R{4,13} + 1144.931624886289 R{4,14}
   + 1005.628303056417 R{4,15} + 324.9515887290092 R{4,16}
   + 1129.975246079657 R{4,17} + 1257.767445306145 R{4,18}
   + 790.6548823007256 R{4,19} + 1931.337246971942 R{4,20}
   - 231.9775664337766 R{5,0} + 242.1080744790759 R{5,1}
   + 1358.300299535796 R{5,2} + 1358.300299535796 R{5,3}
   + 1383.94440585519 R{5,4} + 1747.414085932497 R{5,5}
   + 141.3793067369353 R{5,6} + 1229.930156859402 R{5,7}
   + 621.2888597942363 R{5,8} + 1147.696934686299 R{5,9}
   + 1348.04806617291 R{5,10} + 1419.390850308315 R{5,11}
   + 570.1685739659823 R{5,12} + 1310.982394614988 R{5,13}
   + 656.4707627320329 R{5,14} + 1634.085800333703 R{5,15}
   + 1444.413705301623 R{5,16} + 1043.238065733083 R{5,17}
   - 231.1436095783099 R{6,0} + 1370.402709432251 R{6,1}
   + 1806.330371164076 R{6,2} + 3076.544489173644 R{6,3}
   + 476.4561225730005 R{6,4} + 1840.523755510712 R{6,5}
   + 1381.74382090912 R{6,6} + 1131.765075217522 R{6,7}
   + 1862.944653502148 R{6,8} + 1029.838847660508 R{6,9}
   + 1563.697123204066 R{6,10} + 1751.736365306132 R{6,11}
   + 1882.12874745607 R{6,12} + 1737.719600539486 R{6,13}
   + 2031.398240947917 R{6,14} + 1316.462277112853 R{6,15}
   + 2002.869618651339 R{6,16} + 784.6928360719213 R{6,17}
   + 1253.876855048183 R{6,18} + 2604.069495645655 R{6,19}
   + 1856.362735519099 R{6,20}
Subject To
 R00: R{0,0} <= 1
 R01: R{0,1} <= 1
 R02: R{0,2} <= 1
 R03: R{0,3} <= 1
 R04: R{0,4} <= 1
 R05: R{0,5} <= 1
 R06: R{0,6} <= 1
 R07: R{0,7} <= 1
 R08: R{0,8} <= 1
 R09: R{0,9} <= 1
 R010: R{0,10} <= 1
 R011: R{0,11} <= 1
 R012: R{0,12} <= 1
 R013: R{0,13} <= 1
 R014: R{0,14} <= 1
 R015: R{0,15} <= 1
 R016: R{0,16} <= 1
 R017: R{0,17} <= 1
 R018: R{0,18} <= 1
 R019: R{0,19} <= 1
 R020: R{0,20} <= 1
 R021: R{0,21} <= 1
 R022: R{0,22} <= 1
 R023: R{0,23} <= 1
 R024: R{1,0} <= 1
 R025: R{1,1} <= 1
 R026: R{1,2} <= 1
 R027: R{1,3} <= 1
 R028: R{1,4} <= 1
 R029: R{1,5} <= 1
 R030: R{1,6} <= 1
 R031: R{1,7} <= 1
 R032: R{1,8} <= 1
 R033: R{1,9} <= 1
 R034: R{1,10} <= 1
 R035: R{1,11} <= 1
 R036: R{1,12} <= 1
 R037: R{2,0} <= 1
 R038: R{2,1} <= 1
 R039: R{2,2} <= 1
 R040: R{2,3} <= 1
 R041: R{2,4} <= 1
 R042: R{2,5} <= 1
 R043: R{2,6} <= 1
 R044: R{2,7} <= 1
 R045: R{2,8} <= 1
 R046: R{2,9} <= 1
 R047: R{3,0} <= 1
 R048: R{3,1} <= 1
 R049: R{3,2} <= 1
 R050: R{3,3} <= 1
 R051: R{3,4} <= 1
 R052: R{3,5} <= 1
 R053: R{3,6} <= 1
 R054: R{3,7} <= 1
 R055: R{3,8} <= 1
 R056: R{3,9} <= 1
 R057: R{3,10} <= 1
 R058: R{3,11} <= 1
 R059: R{3,12} <= 1
 R060: R{3,13} <= 1
 R061: R{3,14} <= 1
 R062: R{3,15} <= 1
 R063: R{3,16} <= 1
 R064: R{3,17} <= 1
 R065: R{4,0} <= 1
 R066: R{4,1} <= 1
 R067: R{4,2} <= 1
 R068: R{4,3} <= 1
 R069: R{4,4} <= 1
 R070: R{4,5} <= 1
 R071: R{4,6} <= 1
 R072: R{4,7} <= 1
 R073: R{4,8} <= 1
 R074: R{4,9} <= 1
 R075: R{4,10} <= 1
 R076: R{4,11} <= 1
 R077: R{4,12} <= 1
 R078: R{4,13} <= 1
 R079: R{4,14} <= 1
 R080: R{4,15} <= 1
 R081: R{4,16} <= 1
 R082: R{4,17} <= 1
 R083: R{4,18} <= 1
 R084: R{4,19} <= 1
 R085: R{4,20} <= 1
 R086: R{5,0} <= 1
 R087: R{5,1} <= 1
 R088: R{5,2} <= 1
 R089: R{5,3} <= 1
 R090: R{5,4} <= 1
 R091: R{5,5} <= 1
 R092: R{5,6} <= 1
 R093: R{5,7} <= 1
 R094: R{5,8} <= 1
 R095: R{5,9} <= 1
 R096: R{5,10} <= 1
 R097: R{5,11} <= 1
 R098: R{5,12} <= 1
 R099: R{5,13} <= 1
 R0100: R{5,14} <= 1
 R0101: R{5,15} <= 1
 R0102: R{5,16} <= 1
 R0103: R{5,17} <= 1
 R0104: R{6,0} <= 1
 R0105: R{6,1} <= 1
 R0106: R{6,2} <= 1
 R0107: R{6,3} <= 1
 R0108: R{6,4} <= 1
 R0109: R{6,5} <= 1
 R0110: R{6,6} <= 1
 R0111: R{6,7} <= 1
 R0112: R{6,8} <= 1
 R0113: R{6,9} <= 1
 R0114: R{6,10} <= 1
 R0115: R{6,11} <= 1
 R0116: R{6,12} <= 1
 R0117: R{6,13} <= 1
 R0118: R{6,14} <= 1
 R0119: R{6,15} <= 1
 R0120: R{6,16} <= 1
 R0121: R{6,17} <= 1
 R0122: R{6,18} <= 1
 R0123: R{6,19} <= 1
 R0124: R{6,20} <= 1
 R1_0: R{0,0} + R{0,1} + R{0,2} + R{0,3} + R{0,4} + R{0,5} + R{0,6}
   + R{0,7} + R{0,8} + R{0,9} + R{0,10} + R{0,11} + R{0,12} + R{0,13}
   + R{0,14} + R{0,15} + R{0,16} + R{0,17} + R{0,18} + R{0,19} + R{0,20}
   + R{0,21} + R{0,22} + R{0,23} <= 1
 R1_1: R{1,0} + R{1,1} + R{1,2} + R{1,3} + R{1,4} + R{1,5} + R{1,6}
   + R{1,7} + R{1,8} + R{1,9} + R{1,10} + R{1,11} + R{1,12} <= 1
 R1_2: R{2,0} + R{2,1} + R{2,2} + R{2,3} + R{2,4} + R{2,5} + R{2,6}
   + R{2,7} + R{2,8} + R{2,9} <= 1
 R1_3: R{3,0} + R{3,1} + R{3,2} + R{3,3} + R{3,4} + R{3,5} + R{3,6}
   + R{3,7} + R{3,8} + R{3,9} + R{3,10} + R{3,11} + R{3,12} + R{3,13}
   + R{3,14} + R{3,15} + R{3,16} + R{3,17} <= 1
 R1_4: R{4,0} + R{4,1} + R{4,2} + R{4,3} + R{4,4} + R{4,5} + R{4,6}
   + R{4,7} + R{4,8} + R{4,9} + R{4,10} + R{4,11} + R{4,12} + R{4,13}
   + R{4,14} + R{4,15} + R{4,16} + R{4,17} + R{4,18} + R{4,19} + R{4,20}
   <= 1
 R1_5: R{5,0} + R{5,1} + R{5,2} + R{5,3} + R{5,4} + R{5,5} + R{5,6}
   + R{5,7} + R{5,8} + R{5,9} + R{5,10} + R{5,11} + R{5,12} + R{5,13}
   + R{5,14} + R{5,15} + R{5,16} + R{5,17} <= 1
 R1_6: R{6,0} + R{6,1} + R{6,2} + R{6,3} + R{6,4} + R{6,5} + R{6,6}
   + R{6,7} + R{6,8} + R{6,9} + R{6,10} + R{6,11} + R{6,12} + R{6,13}
   + R{6,14} + R{6,15} + R{6,16} + R{6,17} + R{6,18} + R{6,19} + R{6,20}
   <= 1
 R2_0: 7 R{0,0} + 7 R{0,1} + 7 R{0,2} + 7 R{0,6} + 7 R{0,7} + 7 R{0,8}
   + 7 R{0,9} + 7 R{0,10} + 7 R{0,11} + 7 R{0,12} + 7 R{0,13} + 7 R{0,14}
   + 7 R{0,15} + 7 R{0,16} + 7 R{0,17} + 7 R{0,18} + 7 R{0,19} + 7 R{0,20}
   + 7 R{0,21} + 7 R{0,22} + 7 R{0,23} <= 7
 R2_1: 10 R{0,19} + 10 R{1,7} + 10 R{2,7} + 10 R{3,1} + 10 R{3,2}
   + 10 R{3,3} + 10 R{3,4} + 10 R{3,5} + 10 R{3,7} + 10 R{3,8} + 10 R{3,9}
   + 10 R{3,11} + 10 R{3,12} + 10 R{3,13} + 10 R{3,14} + 10 R{3,15} <= 10
 R2_2: 15 R{6,3} + 15 R{6,19} <= 16
 R2_3: 4 R{5,1} + 4 R{5,2} + 4 R{5,3} + 4 R{5,4} + 4 R{5,5} + 4 R{5,6}
   + 4 R{5,7} + 4 R{5,8} + 4 R{5,10} + 4 R{5,11} + 4 R{5,12} + 4 R{5,13}
   + 4 R{5,14} + 4 R{5,15} + 4 R{5,16} + 4 R{5,17} <= 4
 R2_4: <= 0
 R2_5: 5 R{5,1} + 5 R{5,2} + 5 R{5,3} + 3 R{5,4} + 3 R{5,5} + 5 R{5,6}
   + 5 R{5,8} + 3 R{5,11} + 5 R{5,12} + 5 R{5,14} <= 5
 R2_6: 10 R{1,1} + 10 R{1,2} + 10 R{1,3} + 10 R{1,10} + 10 R{5,4} <= 10
 R2_7: 6 R{1,1} + 6 R{1,3} <= 6
 R2_8: <= 0
 R2_9: 12 R{4,1} + 12 R{4,2} + 12 R{4,3} + 12 R{4,4} + 12 R{4,5}
   + 12 R{4,6} + 12 R{4,7} + 12 R{4,8} + 12 R{4,9} + 12 R{4,10}
   + 12 R{4,11} + 12 R{4,12} + 12 R{4,13} + 11 R{4,14} + 12 R{4,15}
   + 12 R{4,16} + 12 R{4,17} + 12 R{4,18} + 12 R{4,19} + 12 R{4,20} <= 12
 R2_10: 8 R{6,1} + 8 R{6,2} + 8 R{6,4} <= 8
 R2_11: <= 0
 R2_12: <= 0
 R2_13: <= 0
 R2_14: <= 0
 R2_15: 11 R{0,0} + 11 R{0,1} + 11 R{0,2} + 11 R{0,6} + 11 R{0,9}
   + 11 R{0,14} + 11 R{0,18} + 11 R{0,19} + 11 R{0,21} + 11 R{4,1}
   + 11 R{4,2} + 11 R{4,3} + 11 R{4,8} + 11 R{4,9} + 11 R{4,10}
   + 11 R{4,13} + 11 R{4,14} + 11 R{4,20} <= 11
 R2_16: 5 R{0,11} <= 5
 R2_17: 11 R{0,15} + 11 R{0,17} + 11 R{0,21} <= 11
 R2_18: <= 0
 R2_19: 8 R{0,8} + 11 R{0,12} + 11 R{0,20} + 11 R{1,4} + 11 R{1,5}
   + 11 R{3,15} + 11 R{4,1} + 11 R{4,2} + 11 R{4,3} + 8 R{4,4} + 11 R{4,5}
   + 11 R{4,6} + 11 R{4,8} + 11 R{4,9} + 11 R{4,10} + 11 R{4,11}
   + 11 R{4,12} + 11 R{4,13} + 11 R{4,14} + 11 R{4,17} + 11 R{4,18}
   + 11 R{4,20} + 11 R{5,5} + 11 R{5,11} + 11 R{5,15} <= 11
 R2_20: 13 R{0,7} + 13 R{0,9} + 13 R{0,20} + 13 R{1,6} + 13 R{1,9}
   + 13 R{2,3} + 13 R{2,5} + 13 R{2,6} + 5 R{3,9} + 13 R{3,11} + 13 R{3,13}
   + 13 R{5,12} + 13 R{5,14} + 13 R{6,1} + 13 R{6,2} + 13 R{6,3} + 8 R{6,5}
   + 8 R{6,6} + 13 R{6,8} + 13 R{6,10} + 8 R{6,11} + 8 R{6,12} + 13 R{6,13}
   + 13 R{6,14} + 13 R{6,16} + 13 R{6,19} <= 13
 R2_21: <= 0
 R2_22: 10 R{4,3} + 10 R{4,4} + 10 R{4,5} + 10 R{4,6} + 10 R{4,7}
   + 10 R{4,9} + 10 R{4,10} + 10 R{4,16} + 10 R{4,17} + 10 R{4,18}
   + 10 R{6,3} + 10 R{6,19} <= 10
 R2_23: 14 R{4,4} + 14 R{4,12} + 14 R{4,15} + 14 R{4,19} + 14 R{6,2}
   + 14 R{6,3} + 14 R{6,5} + 14 R{6,8} + 14 R{6,9} + 14 R{6,16}
   + 14 R{6,19} <= 14
 R2_24: 10 R{0,13} + 10 R{3,1} + 10 R{3,2} + 10 R{3,4} + 10 R{3,5}
   + 10 R{3,6} + 10 R{3,7} + 10 R{3,9} + 10 R{3,14} + 10 R{3,17}
   + 8 R{5,16} + 10 R{5,17} + 10 R{6,3} <= 10
 R2_25: 13 R{0,0} + 13 R{0,1} + 13 R{0,2} + 13 R{0,6} + 13 R{0,7}
   + 13 R{0,8} + 13 R{0,9} + 13 R{0,10} + 13 R{0,11} + 13 R{0,12}
   + 13 R{0,13} + 13 R{0,14} + 13 R{0,16} + 13 R{0,18} + 13 R{0,19}
   + 13 R{0,20} + 13 R{0,22} + 13 R{0,23} + 13 R{3,7} + 13 R{3,9}
   + 13 R{4,1} + 13 R{4,2} + 13 R{4,8} + 13 R{4,12} + 13 R{4,13}
   + 13 R{4,14} + 13 R{4,15} + 13 R{4,20} <= 13
 R2_26: 6 R{1,12} + 6 R{2,8} + 6 R{2,9} + 6 R{3,17} + 6 R{5,1} + 6 R{5,2}
   + 6 R{5,3} + 6 R{5,4} + 6 R{5,6} + 6 R{5,7} + 6 R{5,8} + 6 R{5,9}
   + 6 R{5,10} + 6 R{5,12} + 6 R{5,13} + 6 R{5,14} + 6 R{5,16} + 6 R{5,17}
   <= 6
 R2_27: 5 R{0,6} + 5 R{0,11} + 5 R{0,14} + 5 R{0,18} + 5 R{1,10} + 5 R{2,5}
   + 5 R{3,11} + 5 R{3,16} + 5 R{5,2} + 5 R{5,3} + 5 R{5,5} + 5 R{5,8}
   + 5 R{5,10} + 5 R{5,13} + 5 R{5,15} + 5 R{5,16} + 5 R{6,1} + 5 R{6,2}
   + 5 R{6,3} + 5 R{6,5} + 5 R{6,6} + 5 R{6,7} + 5 R{6,8} + 5 R{6,10}
   + 5 R{6,11} + 5 R{6,12} + 5 R{6,13} + 5 R{6,14} + 5 R{6,15} + 5 R{6,16}
   + 5 R{6,17} + 5 R{6,19} + 5 R{6,20} <= 5
 R2_28: <= 0
 R2_29: <= 0
 R2_30: <= 0
 R2_31: <= 0
 R2_32: 7 R{0,4} + 7 R{0,5} + 7 R{5,11} + 7 R{5,15} <= 7
 R2_33: 12 R{4,11} + 12 R{5,4} + 12 R{5,5} + 12 R{5,11} <= 12
 R2_34: 5 R{0,0} + 5 R{0,1} + 5 R{0,2} + 5 R{0,6} + 5 R{0,7} + 5 R{0,8}
   + 5 R{0,9} + 5 R{0,10} + 5 R{0,11} + 5 R{0,12} + 5 R{0,13} + 5 R{0,14}
   + 5 R{0,15} + 5 R{0,16} + 5 R{0,17} + 5 R{0,18} + 5 R{0,19} + 5 R{0,20}
   + 5 R{0,21} + 5 R{0,22} + 5 R{0,23} <= 5
 R2_35: <= 0
 R2_36: 15 R{5,1} + 15 R{5,2} + 15 R{5,3} + 15 R{5,4} + 15 R{5,5}
   + 15 R{5,6} + 15 R{5,7} + 15 R{5,8} + 15 R{5,9} + 15 R{5,10}
   + 15 R{5,12} + 15 R{5,13} + 15 R{5,14} + 15 R{5,16} <= 16
 R2_37: 5 R{3,1} + 5 R{3,2} + 5 R{3,3} + 5 R{3,4} + 5 R{3,5} + 5 R{3,6}
   + 5 R{3,7} + 5 R{3,8} + 5 R{3,10} + 5 R{3,12} <= 5
 R2_38: <= 0
 R2_39: 15 R{0,0} + 15 R{0,1} + 15 R{0,2} + 15 R{0,6} + 15 R{0,8}
   + 15 R{0,9} + 15 R{0,11} + 15 R{0,12} + 15 R{0,14} + 15 R{0,18}
   + 15 R{0,19} + 15 R{0,20} + 15 R{0,21} <= 17
 R2_40: 15 R{1,6} + 15 R{1,8} + 15 R{2,1} + 15 R{2,2} + 15 R{2,3}
   + 15 R{2,4} + 15 R{2,6} + 15 R{2,7} + 15 R{2,8} <= 15
 R2_41: 5 R{0,0} + 5 R{0,1} + 5 R{0,2} + 5 R{0,6} + 5 R{0,7} + 5 R{0,8}
   + 5 R{0,9} + 5 R{0,10} + 5 R{0,11} + 5 R{0,12} + 5 R{0,14} + 5 R{0,15}
   + 5 R{0,18} + 5 R{0,20} + 5 R{0,21} + 5 R{0,23} + 5 R{3,2} + 5 R{3,6}
   + 5 R{3,7} + 5 R{3,13} + 5 R{3,14} + 5 R{6,12} + 5 R{6,14} + 5 R{6,16}
   <= 5
 R2_42: 4 R{2,1} + 4 R{2,2} + 4 R{2,3} + 4 R{2,4} + 4 R{2,5} + 4 R{2,7}
   <= 4
 R2_43: <= 0
 R2_44: <= 0
 R2_45: <= 0
 R2_46: 9 R{0,7} + 9 R{0,10} + 9 R{0,13} + 9 R{0,15} + 9 R{0,16}
   + 9 R{0,17} + 9 R{0,22} + 9 R{0,23} + 9 R{6,11} + 9 R{6,12} + 9 R{6,14}
   + 9 R{6,18} + 9 R{6,20} <= 9
 R2_47: 7 R{0,0} + 7 R{0,1} + 7 R{0,2} + 7 R{0,6} + 7 R{0,8} + 7 R{0,9}
   + 7 R{0,11} + 7 R{0,12} + 7 R{0,18} + 7 R{0,23} + 7 R{5,1} + 7 R{5,2}
   + 7 R{5,3} + 7 R{5,6} + 7 R{5,7} + 7 R{5,8} + 7 R{5,9} + 7 R{5,10} <= 7
 R2_48: 4 R{4,1} + 4 R{4,2} + 4 R{4,3} + 4 R{4,4} + 4 R{4,5} + 4 R{4,8}
   + 4 R{4,9} + 4 R{4,10} + 4 R{4,11} + 4 R{4,12} + 4 R{4,13} + 4 R{4,14}
   + 4 R{4,15} + 4 R{4,17} + 4 R{4,18} + 4 R{4,19} + 4 R{4,20} <= 4
 R2_49: <= 0
 R2_50: <= 0
 R2_51: 11 R{4,1} + 11 R{4,8} + 11 R{4,11} + 11 R{6,18} <= 11
 R2_52: <= 0
 R2_53: 13 R{4,1} + 13 R{4,2} + 13 R{4,3} + 13 R{4,4} + 13 R{4,5}
   + 13 R{4,6} + 13 R{4,7} + 13 R{4,8} + 13 R{4,9} + 13 R{4,11}
   + 13 R{4,12} + 13 R{4,15} <= 13
 R2_54: 9 R{3,1} + 9 R{3,2} + 9 R{3,3} + 9 R{3,4} + 9 R{3,5} + 9 R{3,6}
   + 9 R{3,8} + 9 R{3,10} + 9 R{3,13} + 9 R{3,14} + 9 R{3,17} <= 9
 R2_55: 8 R{3,11} + 8 R{3,16} + 8 R{6,1} + 8 R{6,2} + 8 R{6,4} + 8 R{6,5}
   + 8 R{6,6} + 8 R{6,7} + 8 R{6,8} + 8 R{6,9} + 8 R{6,10} + 8 R{6,11}
   + 8 R{6,13} + 8 R{6,15} + 8 R{6,17} + 8 R{6,18} <= 8
 R2_56: 6 R{0,1} + 6 R{0,2} + 6 R{0,7} + 6 R{0,8} + 6 R{0,10} + 6 R{0,12}
   + 6 R{0,13} + 6 R{0,15} + 6 R{0,17} + 6 R{0,19} + 6 R{0,22} + 6 R{4,10}
   + 6 R{4,13} + 6 R{4,18} + 6 R{4,20} + 6 R{6,3} <= 6
 R2_57: <= 0
 R2_58: <= 0
 R2_59: 10 R{4,14} + 10 R{4,16} + 10 R{4,17} + 10 R{4,19} + 10 R{6,13}
   + 10 R{6,19} <= 10
 R2_60: <= 0
 R2_61: 9 R{0,16} + 9 R{6,14} <= 9
 R2_62: <= 0
 R2_63: <= 0
 R2_64: <= 0
 R2_65: 5 R{6,1} + 5 R{6,2} + 5 R{6,3} + 5 R{6,4} + 5 R{6,5} + 5 R{6,6}
   + 5 R{6,7} + 5 R{6,8} + 5 R{6,9} + 5 R{6,10} + 5 R{6,11} + 5 R{6,12}
   + 5 R{6,13} + 5 R{6,15} + 5 R{6,16} + 5 R{6,17} + 5 R{6,18} + 5 R{6,19}
   + 5 R{6,20} <= 5
 R2_66: 7 R{1,6} + 7 R{1,8} + 7 R{1,9} + 7 R{6,1} + 7 R{6,2} + 7 R{6,4}
   + 7 R{6,5} + 7 R{6,6} + 7 R{6,7} + 7 R{6,10} + 7 R{6,11} + 7 R{6,12}
   + 7 R{6,13} + 7 R{6,17} + 7 R{6,18} <= 7
 R2_67: 3 R{0,11} + 3 R{0,14} + 3 R{6,3} + 3 R{6,5} + 3 R{6,6} + 3 R{6,7}
   + 3 R{6,8} + 3 R{6,9} + 3 R{6,10} + 3 R{6,11} + 3 R{6,12} + 3 R{6,13}
   + 3 R{6,14} + 3 R{6,16} + 3 R{6,18} + 3 R{6,19} + 3 R{6,20} <= 3
 R2_68: 6 R{1,1} + 6 R{1,2} + 6 R{1,3} + 6 R{1,4} + 6 R{1,5} + 6 R{1,9}
   + 6 R{1,10} + 6 R{1,12} <= 6
 R2_69: 7 R{0,0} + 7 R{0,1} + 7 R{0,2} + 7 R{0,7} + 7 R{0,8} + 7 R{0,9}
   + 7 R{0,11} + 7 R{0,12} + 7 R{0,13} + 7 R{0,15} + 7 R{0,19} + 7 R{0,20}
   + 7 R{0,22} + 7 R{0,23} + 7 R{4,1} + 7 R{4,2} + 7 R{4,3} + 7 R{4,4}
   + 7 R{4,5} + 7 R{4,6} + 7 R{4,7} + 7 R{4,8} + 7 R{4,9} + 7 R{4,10}
   + 7 R{4,11} + 7 R{4,12} + 7 R{4,13} + 7 R{4,14} + 7 R{4,15} + 7 R{4,17}
   + 7 R{4,18} + 7 R{4,20} <= 7
 R2_70: 11 R{1,1} + 11 R{1,2} + 11 R{1,4} + 11 R{1,10} <= 11
 R2_71: 7 R{1,6} + 7 R{1,8} + 7 R{6,1} + 7 R{6,2} + 7 R{6,3} + 7 R{6,4}
   + 7 R{6,19} <= 7
 R2_72: <= 0
 R2_73: 11 R{0,0} + 11 R{0,1} + 11 R{0,2} + 11 R{0,6} + 11 R{0,7}
   + 11 R{0,8} + 11 R{0,9} + 11 R{0,10} + 11 R{0,12} + 11 R{0,13}
   + 11 R{0,15} + 11 R{0,17} + 11 R{0,18} + 11 R{0,19} + 11 R{0,20}
   + 11 R{0,21} + 11 R{0,22} + 11 R{0,23} <= 11
 R2_74: 5 R{5,1} + 5 R{5,2} + 5 R{5,3} + 5 R{5,4} + 5 R{5,5} + 5 R{5,7}
   + 5 R{5,8} + 5 R{5,9} + 5 R{5,10} + 5 R{5,11} + 5 R{5,13} + 5 R{5,14}
   + 5 R{5,15} + 5 R{5,17} <= 5
 R2_75: 8 R{6,1} + 8 R{6,2} + 8 R{6,3} + 8 R{6,5} + 8 R{6,6} + 8 R{6,7}
   + 7 R{6,8} + 8 R{6,9} + 8 R{6,10} + 8 R{6,11} + 8 R{6,15} + 8 R{6,17}
   + 8 R{6,18} + 8 R{6,20} <= 8
 R2_76: 12 R{0,4} + 12 R{0,5} + 12 R{3,6} + 12 R{3,10} + 12 R{5,7}
   + 12 R{5,9} + 12 R{6,3} + 12 R{6,19} <= 12
 R2_77: 7 R{0,1} + 7 R{0,2} + 7 R{0,5} + 7 R{0,8} + 7 R{0,19} + 7 R{0,22}
   + 7 R{1,2} + 7 R{1,4} + 7 R{1,5} + 7 R{1,7} + 7 R{1,10} + 7 R{1,11}
   + 7 R{1,12} + 7 R{2,2} + 7 R{2,3} + 7 R{2,4} + 7 R{2,7} + 7 R{2,8}
   + 7 R{2,9} + 7 R{3,8} + 7 R{3,10} + 7 R{3,12} + 7 R{3,14} + 7 R{3,16}
   + 7 R{3,17} + 7 R{4,2} + 7 R{4,3} + 7 R{4,4} + 7 R{4,13} + 7 R{4,20}
   + 7 R{5,2} + 7 R{5,3} + 7 R{5,4} + 7 R{5,5} + 7 R{5,7} + 7 R{5,9}
   + 7 R{5,10} + 7 R{5,11} + 7 R{5,13} + 7 R{5,15} + 7 R{5,16} + 7 R{5,17}
   + 7 R{6,15} + 7 R{6,20} <= 7
Bounds
End
